projected/problems_b25_r0_d7_m100_s666/_DIMACS/b25_d7_r0_s666_063.cnf
p cnf 339 659 25
c p show 1 2 3 4 5 6 7 8 9 10 11 12 13 14 15 16 17 18 19 20 21 22 23 24 25
-42 6 -17 0
-43 12 0
-43 -25 0
-44 43 0
-44 42 0
-45 -15 0
-45 -16 0
-46 17 0
-46 -4 0
-47 46 0
-47 45 0
-48 -17 4 0
-49 15 16 0
-50 49 0
-50 48 0
-51 50 47 0
-52 51 44 0
-53 13 1 0
-54 23 0
-54 -14 0
-55 54 0
-55 53 0
-56 -23 0
-56 19 0
-57 5 14 0
-58 57 0
-58 56 0
-59 58 0
-59 55 0
-60 59 0
-60 52 0
-61 14 0
-61 -24 0
-62 3 0
-62 -12 0
-63 12 0
-63 -3 0
-64 63 62 0
-65 64 61 0
-66 7 16 0
-67 -20 17 0
-68 -17 20 0
-69 68 0
-69 67 0
-70 69 0
-70 66 0
-71 70 0
-71 65 0
-72 9 0
-72 24 0
-73 1 0
-73 -16 0
-74 73 0
-74 72 0
-75 -6 0
-75 25 0
-76 9 0
-76 12 0
-77 -12 0
-77 -9 0
-78 77 76 0
-79 78 75 0
-80 79 74 0
-81 80 71 0
-82 -9 -24 0
-83 -1 16 0
-84 83 82 0
-85 6 -25 0
-86 -9 -12 0
-87 12 9 0
-88 87 0
-88 86 0
-89 88 0
-89 85 0
-90 89 0
-90 84 0
-91 -14 24 0
-92 -3 12 0
-93 -12 3 0
-94 93 0
-94 92 0
-95 94 0
-95 91 0
-96 -7 0
-96 -16 0
-97 20 0
-97 -17 0
-98 17 0
-98 -20 0
-99 98 97 0
-100 99 96 0
-101 100 95 0
-102 101 90 0
-103 102 0
-103 81 0
-104 103 60 0
-105 -7 0
-105 14 0
-106 -23 0
-106 8 0
-107 106 0
-107 105 0
-108 -1 0
-108 23 0
-109 14 0
-109 -3 0
-110 109 108 0
-111 110 0
-111 107 0
-112 1 -23 0
-113 -14 3 0
-114 113 0
-114 112 0
-115 7 -14 0
-116 23 -8 0
-117 116 115 0
-118 117 0
-118 114 0
-119 118 111 0
-120 -18 20 0
-121 -19 0
-121 23 0
-122 121 0
-122 120 0
-123 3 0
-123 -11 0
-124 -18 0
-124 -23 0
-125 124 0
-125 123 0
-126 125 0
-126 122 0
-127 126 119 0
-128 9 0
-128 -11 0
-129 6 0
-129 16 0
-130 129 128 0
-131 -19 0
-131 14 0
-132 -17 -4 0
-133 132 0
-133 131 0
-134 133 130 0
-135 11 0
-135 16 0
-136 -2 0
-136 14 0
-137 136 0
-137 135 0
-138 2 -14 0
-139 -11 -16 0
-140 139 0
-140 138 0
-141 140 137 0
-142 4 0
-142 -10 0
-143 20 23 0
-144 -23 -20 0
-145 144 0
-145 143 0
-146 145 142 0
-147 146 0
-147 141 0
-148 147 0
-148 134 0
-149 148 0
-149 127 0
-150 149 0
-150 104 0
-151 21 0
-151 -11 0
-152 11 0
-152 17 0
-153 -17 0
-153 -11 0
-154 153 152 0
-155 154 0
-155 151 0
-156 9 0
-156 1 0
-157 1 19 0
-158 157 156 0
-159 -1 0
-159 -19 0
-160 -9 -1 0
-161 160 159 0
-162 161 0
-162 158 0
-163 162 155 0
-164 -6 22 0
-165 -12 15 0
-166 165 0
-166 164 0
-167 -1 0
-167 2 0
-168 23 0
-168 18 0
-169 168 0
-169 167 0
-170 169 0
-170 166 0
-171 170 0
-171 163 0
-172 6 0
-172 -22 0
-173 12 0
-173 -15 0
-174 173 172 0
-175 1 -2 0
-176 -23 -18 0
-177 176 175 0
-178 177 174 0
-179 -21 11 0
-180 -11 -17 0
-181 17 11 0
-182 181 0
-182 180 0
-183 182 179 0
-184 159 0
-184 160 0
-185 156 0
-185 157 0
-186 185 184 0
-187 186 0
-187 183 0
-188 187 0
-188 178 0
-189 188 171 0
-190 21 -25 0
-191 -16 -21 0
-192 191 190 0
-193 -6 0
-193 -12 0
-194 -10 -14 0
-195 194 0
-195 193 0
-196 195 192 0
-197 -24 -14 0
-198 14 24 0
-199 198 0
-199 197 0
-200 -12 0
-200 21 0
-201 200 199 0
-202 20 -9 0
-203 22 0
-203 12 0
-204 203 202 0
-205 204 0
-205 201 0
-206 205 0
-206 196 0
-207 206 0
-207 189 0
-208 4 7 0
-209 -7 -4 0
-210 209 0
-210 208 0
-211 -10 0
-211 -21 0
-212 211 210 0
-213 -23 0
-213 -6 0
-214 -23 0
-214 22 0
-215 214 0
-215 213 0
-216 215 0
-216 212 0
-217 11 1 0
-218 -8 -12 0
-219 218 0
-219 217 0
-220 -3 -17 0
-221 -7 1 0
-222 221 220 0
-223 7 0
-223 -1 0
-224 3 0
-224 17 0
-225 224 223 0
-226 225 0
-226 222 0
-227 226 0
-227 219 0
-228 227 0
-228 216 0
-229 12 0
-229 -11 0
-230 -7 0
-230 -6 0
-231 230 0
-231 229 0
-232 -24 -12 0
-233 -4 2 0
-234 233 0
-234 232 0
-235 234 231 0
-236 -4 0
-236 -9 0
-237 11 -17 0
-238 237 236 0
-239 2 -2 0
-240 4 8 0
-241 240 239 0
-242 241 238 0
-243 242 235 0
-244 243 0
-244 228 0
-245 244 0
-245 207 0
-246 -4 0
-246 -7 0
-247 7 0
-247 4 0
-248 247 246 0
-249 10 21 0
-250 249 0
-250 248 0
-251 23 6 0
-252 23 -22 0
-253 252 251 0
-254 253 250 0
-255 -11 0
-255 -1 0
-256 8 0
-256 12 0
-257 256 255 0
-258 223 0
-258 224 0
-259 220 0
-259 221 0
-260 259 258 0
-261 260 257 0
-262 261 254 0
-263 -12 11 0
-264 7 6 0
-265 264 263 0
-266 24 0
-266 12 0
-267 4 0
-267 -2 0
-268 267 266 0
-269 268 0
-269 265 0
-270 4 9 0
-271 -11 0
-271 17 0
-272 271 0
-272 270 0
-273 -2 0
-273 2 0
-274 -4 0
-274 -8 0
-275 274 0
-275 273 0
-276 275 0
-276 272 0
-277 276 0
-277 269 0
-278 277 262 0
-279 178 187 0
-280 163 170 0
-281 280 0
-281 279 0
-282 -21 0
-282 25 0
-283 16 0
-283 21 0
-284 283 0
-284 282 0
-285 6 12 0
-286 10 0
-286 14 0
-287 286 285 0
-288 287 0
-288 284 0
-289 24 0
-289 14 0
-290 -14 0
-290 -24 0
-291 290 289 0
-292 12 -21 0
-293 292 0
-293 291 0
-294 -20 0
-294 9 0
-295 -22 -12 0
-296 295 0
-296 294 0
-297 296 293 0
-298 297 288 0
-299 298 281 0
-300 299 0
-300 278 0
-301 300 245 0
-302 301 0
-302 150 0
-303 278 299 0
-304 207 244 0
-305 304 0
-305 303 0
-306 -6 0
-306 17 0
-307 -12 25 0
-308 307 306 0
-309 48 49 0
-310 45 46 0
-311 310 0
-311 309 0
-312 311 0
-312 308 0
-313 -13 0
-313 -1 0
-314 -23 14 0
-315 314 313 0
-316 23 -19 0
-317 -5 0
-317 -14 0
-318 317 316 0
-319 318 315 0
-320 319 312 0
-321 90 0
-321 101 0
-322 71 0
-322 80 0
-323 322 321 0
-324 323 0
-324 320 0
-325 114 117 0
-326 107 110 0
-327 326 0
-327 325 0
-328 18 0
-328 -20 0
-329 19 -23 0
-330 329 328 0
-331 -3 11 0
-332 18 23 0
-333 332 331 0
-334 333 330 0
-335 334 0
-335 327 0
-336 -9 11 0
-337 -6 -16 0
-338 337 0
-338 336 0
-339 19 -14 0
-26 17 0
-26 4 0
-34 26 339 0
-35 34 0
-35 338 0
-36 138 139 0
-37 135 136 0
-38 37 0
-38 36 0
-39 -4 10 0
-40 -20 0
-40 -23 0
-41 23 0
-41 20 0
-27 41 40 0
-28 27 0
-28 39 0
-29 28 38 0
-30 29 35 0
-31 30 335 0
-32 31 324 0
-33 32 0
-33 305 0
33 302 0
-210 -248 0
-249 -211 0
-211 -249 0
-212 -250 0
-250 -212 0
-251 -213 0
-214 -252 0
-252 -214 0
-253 -215 0
-254 -216 0
-216 -254 0
-217 -255 0
-218 -256 0
-219 -257 0
-223 -221 0
-224 -220 0
-220 -224 0
-226 -260 0
-227 -261 0
-228 -262 0
-229 -263 0
-264 -230 0
-230 -264 0
-231 -265 0
-266 -232 0
-233 -267 0
-267 -233 0
-268 -234 0
-234 -268 0
-235 -269 0
-269 -235 0
-236 -270 0
-270 -236 0
-237 -271 0
-271 -237 0
-272 -238 0
-239 -273 0
-273 -239 0
-274 -240 0
-275 -241 0
-276 -242 0
-277 -243 0
-243 -277 0
-244 -278 0
-172 -164 0
-173 -165 0
-174 -166 0
-175 -167 0
-176 -168 0
-177 -169 0
-178 -170 0
-170 -178 0
-179 -151 0
-151 -179 0
-182 -154 0
-154 -182 0
-155 -183 0
-157 -159 0
-159 -157 0
-160 -156 0
-156 -160 0
-162 -186 0
-163 -187 0
-187 -163 0
-281 -189 0
-189 -281 0
-282 -190 0
-283 -191 0
-284 -192 0
-285 -193 0
-193 -285 0
-286 -194 0
-194 -286 0
-195 -287 0
-287 -195 0
-288 -196 0
-196 -288 0
-199 -291 0
-292 -200 0
-200 -292 0
-201 -293 0
-294 -202 0
-202 -294 0
-203 -295 0
-204 -296 0
-205 -297 0
-206 -298 0
-207 -299 0
-299 -207 0
-305 -301 0
-301 -305 0
-306 -42 0
-42 -306 0
-307 -43 0
-43 -307 0
-44 -308 0
-46 -48 0
-45 -49 0
-49 -45 0
-311 -51 0
-51 -311 0
-52 -312 0
-312 -52 0
-53 -313 0
-314 -54 0
-54 -314 0
-55 -315 0
-315 -55 0
-316 -56 0
-317 -57 0
-318 -58 0
-319 -59 0
-320 -60 0
-82 -72 0
-83 -73 0
-84 -74 0
-75 -85 0
-85 -75 0
-88 -78 0
-89 -79 0
-90 -80 0
-91 -61 0
-94 -64 0
-95 -65 0
-66 -96 0
-96 -66 0
-69 -99 0
-99 -69 0
-100 -70 0
-101 -71 0
-71 -101 0
-103 -323 0
-323 -103 0
-324 -104 0
-104 -324 0
-108 -112 0
-113 -109 0
-109 -113 0
-110 -114 0
-105 -115 0
-115 -105 0
-106 -116 0
-116 -106 0
-117 -107 0
-327 -119 0
-120 -328 0
-328 -120 0
-121 -329 0
-329 -121 0
-330 -122 0
-122 -330 0
-123 -331 0
-124 -332 0
-125 -333 0
-126 -334 0
-334 -126 0
-335 -127 0
-127 -335 0
-128 -336 0
-336 -128 0
-129 -337 0
-337 -129 0
-338 -130 0
-131 -339 0
-339 -131 0
-132 -26 0
-26 -132 0
-34 -133 0
-35 -134 0
-134 -35 0
-136 -138 0
-135 -139 0
-139 -135 0
-38 -141 0
-141 -38 0
-142 -39 0
-39 -142 0
-145 -27 0
-27 -145 0
-28 -146 0
-146 -28 0
-147 -29 0
-148 -30 0
-149 -31 0
-150 -32 0
-32 -150 0
