projected/problems_b25_r0_d7_m100_s666/b25_d7_r0_s666_063.smt2
(set-logic QF_UF)
(declare-fun A0 () Bool)
(declare-fun A1 () Bool)
(declare-fun A2 () Bool)
(declare-fun A3 () Bool)
(declare-fun A4 () Bool)
(declare-fun A5 () Bool)
(declare-fun A6 () Bool)
(declare-fun A7 () Bool)
(declare-fun A8 () Bool)
(declare-fun A9 () Bool)
(declare-fun A10 () Bool)
(declare-fun A11 () Bool)
(declare-fun A12 () Bool)
(declare-fun A13 () Bool)
(declare-fun A14 () Bool)
(declare-fun A15 () Bool)
(declare-fun A16 () Bool)
(declare-fun A17 () Bool)
(declare-fun A18 () Bool)
(declare-fun A19 () Bool)
(declare-fun A20 () Bool)
(declare-fun A21 () Bool)
(declare-fun A22 () Bool)
(declare-fun A23 () Bool)
(declare-fun A24 () Bool)
(assert (let ((.def_0 (not A3))) (let ((.def_1 (= A6 .def_0))) (let ((.def_2 (or A9 A20))) (let ((.def_3 (not .def_2))) (let ((.def_4 (or .def_3 .def_1))) (let ((.def_5 (not .def_4))) (let ((.def_6 (or A22 A5))) (let ((.def_7 (not A22))) (let ((.def_8 (and .def_7 A21))) (let ((.def_9 (not .def_8))) (let ((.def_10 (or .def_9 .def_6))) (let ((.def_11 (or .def_10 .def_5))) (let ((.def_12 (not .def_11))) (let ((.def_13 (or A10 A0))) (let ((.def_14 (not A11))) (let ((.def_15 (not A7))) (let ((.def_16 (or .def_15 .def_14))) (let ((.def_17 (and .def_16 .def_13))) (let ((.def_18 (not A0))) (let ((.def_19 (and A6 .def_18))) (let ((.def_20 (and A2 A16))) (let ((.def_21 (not .def_20))) (let ((.def_22 (= .def_21 .def_19))) (let ((.def_23 (and .def_22 .def_17))) (let ((.def_24 (and .def_23 .def_12))) (let ((.def_25 (not A10))) (let ((.def_26 (and A11 .def_25))) (let ((.def_27 (or A6 A5))) (let ((.def_28 (not .def_27))) (let ((.def_29 (and .def_28 .def_26))) (let ((.def_30 (and A23 A11))) (let ((.def_31 (or .def_0 A1))) (let ((.def_32 (not .def_31))) (let ((.def_33 (or .def_32 .def_30))) (let ((.def_34 (not .def_33))) (let ((.def_35 (or .def_34 .def_29))) (let ((.def_36 (not .def_35))) (let ((.def_37 (not A8))) (let ((.def_38 (and .def_0 .def_37))) (let ((.def_39 (not .def_38))) (let ((.def_40 (not A16))) (let ((.def_41 (or A10 .def_40))) (let ((.def_42 (not .def_41))) (let ((.def_43 (and .def_42 .def_39))) (let ((.def_44 (not A1))) (let ((.def_45 (or A1 .def_44))) (let ((.def_46 (not .def_45))) (let ((.def_47 (and .def_0 .def_15))) (let ((.def_48 (and .def_47 .def_46))) (let ((.def_49 (and .def_48 .def_43))) (let ((.def_50 (and .def_49 .def_36))) (let ((.def_51 (not .def_50))) (let ((.def_52 (and .def_51 .def_24))) (let ((.def_53 (not A21))) (let ((.def_54 (and A5 .def_53))) (let ((.def_55 (not A14))) (let ((.def_56 (and A11 .def_55))) (let ((.def_57 (or .def_56 .def_54))) (let ((.def_58 (or A0 .def_44))) (let ((.def_59 (not A17))) (let ((.def_60 (or .def_7 .def_59))) (let ((.def_61 (or .def_60 .def_58))) (let ((.def_62 (or .def_61 .def_57))) (let ((.def_63 (not .def_62))) (let ((.def_64 (not A20))) (let ((.def_65 (or .def_64 A10))) (let ((.def_66 (not .def_65))) (let ((.def_67 (= .def_40 A10))) (let ((.def_68 (not .def_67))) (let ((.def_69 (and .def_68 .def_66))) (let ((.def_70 (or A0 A18))) (let ((.def_71 (not .def_70))) (let ((.def_72 (or .def_37 .def_18))) (let ((.def_73 (not .def_72))) (let ((.def_74 (= .def_73 .def_71))) (let ((.def_75 (or .def_74 .def_69))) (let ((.def_76 (not .def_75))) (let ((.def_77 (= .def_76 .def_63))) (let ((.def_78 (not .def_77))) (let ((.def_79 (and .def_64 A24))) (let ((.def_80 (and A15 A20))) (let ((.def_81 (and .def_80 .def_79))) (let ((.def_82 (or A5 A11))) (let ((.def_83 (not .def_82))) (let ((.def_84 (and A9 A13))) (let ((.def_85 (not .def_84))) (let ((.def_86 (and .def_85 .def_83))) (let ((.def_87 (not .def_86))) (let ((.def_88 (and .def_87 .def_81))) (let ((.def_89 (not .def_88))) (let ((.def_90 (not A13))) (let ((.def_91 (= .def_90 A23))) (let ((.def_92 (or A11 .def_64))) (let ((.def_93 (not .def_92))) (let ((.def_94 (or .def_93 .def_91))) (let ((.def_95 (not A19))) (let ((.def_96 (and .def_95 A8))) (let ((.def_97 (not .def_96))) (let ((.def_98 (and A21 A11))) (let ((.def_99 (or .def_98 .def_97))) (let ((.def_100 (and .def_99 .def_94))) (let ((.def_101 (and .def_100 .def_89))) (let ((.def_102 (and .def_101 .def_78))) (let ((.def_103 (not .def_102))) (let ((.def_104 (= .def_103 .def_52))) (let ((.def_105 (not .def_104))) (let ((.def_106 (not A5))) (let ((.def_107 (and .def_106 A16))) (let ((.def_108 (not .def_107))) (let ((.def_109 (or .def_14 A24))) (let ((.def_110 (not .def_109))) (let ((.def_111 (and .def_110 .def_108))) (let ((.def_112 (and A16 .def_0))) (let ((.def_113 (not A15))) (let ((.def_114 (and .def_55 .def_113))) (let ((.def_115 (not .def_114))) (let ((.def_116 (= .def_115 .def_112))) (let ((.def_117 (not .def_116))) (let ((.def_118 (or .def_117 .def_111))) (let ((.def_119 (not .def_118))) (let ((.def_120 (or A12 A0))) (let ((.def_121 (or .def_7 A13))) (let ((.def_122 (not .def_121))) (let ((.def_123 (and .def_122 .def_120))) (let ((.def_124 (not .def_123))) (let ((.def_125 (not A18))) (let ((.def_126 (or A22 .def_125))) (let ((.def_127 (not A4))) (let ((.def_128 (and .def_127 .def_90))) (let ((.def_129 (or .def_128 .def_126))) (let ((.def_130 (or .def_129 .def_124))) (let ((.def_131 (or .def_130 .def_119))) (let ((.def_132 (not A23))) (let ((.def_133 (or .def_37 .def_132))) (let ((.def_134 (or .def_18 A15))) (let ((.def_135 (or .def_134 .def_133))) (let ((.def_136 (and .def_106 A24))) (let ((.def_137 (not .def_136))) (let ((.def_138 (= .def_14 A8))) (let ((.def_139 (and .def_138 .def_137))) (let ((.def_140 (and .def_139 .def_135))) (let ((.def_141 (or .def_90 A23))) (let ((.def_142 (= A11 A2))) (let ((.def_143 (and .def_142 .def_141))) (let ((.def_144 (or A6 A15))) (let ((.def_145 (not .def_144))) (let ((.def_146 (= A16 A19))) (let ((.def_147 (not .def_146))) (let ((.def_148 (or .def_147 .def_145))) (let ((.def_149 (or .def_148 .def_143))) (let ((.def_150 (not .def_149))) (let ((.def_151 (= .def_150 .def_140))) (let ((.def_152 (not .def_151))) (let ((.def_153 (and .def_152 .def_131))) (let ((.def_154 (not .def_153))) (let ((.def_155 (and .def_18 A22))) (let ((.def_156 (or .def_90 A2))) (let ((.def_157 (not .def_156))) (let ((.def_158 (or .def_157 .def_155))) (let ((.def_159 (not A6))) (let ((.def_160 (and .def_159 A13))) (let ((.def_161 (not .def_160))) (let ((.def_162 (and .def_7 A7))) (let ((.def_163 (not .def_162))) (let ((.def_164 (or .def_163 .def_161))) (let ((.def_165 (= .def_164 .def_158))) (let ((.def_166 (or .def_59 A19))) (let ((.def_167 (not .def_166))) (let ((.def_168 (and .def_125 A22))) (let ((.def_169 (not .def_168))) (let ((.def_170 (or .def_169 .def_167))) (let ((.def_171 (not .def_170))) (let ((.def_172 (and A2 .def_25))) (let ((.def_173 (and .def_59 .def_7))) (let ((.def_174 (and .def_173 .def_172))) (let ((.def_175 (and .def_174 .def_171))) (let ((.def_176 (not .def_175))) (let ((.def_177 (and .def_176 .def_165))) (let ((.def_178 (not .def_177))) (let ((.def_179 (and A8 .def_25))) (let ((.def_180 (not .def_179))) (let ((.def_181 (and A5 A15))) (let ((.def_182 (not .def_181))) (let ((.def_183 (and .def_182 .def_180))) (let ((.def_184 (and .def_125 A13))) (let ((.def_185 (not .def_184))) (let ((.def_186 (or .def_40 .def_0))) (let ((.def_187 (not .def_186))) (let ((.def_188 (or .def_187 .def_185))) (let ((.def_189 (and .def_188 .def_183))) (let ((.def_190 (not .def_189))) (let ((.def_191 (and .def_44 A13))) (let ((.def_192 (and A10 A15))) (let ((.def_193 (not .def_192))) (let ((.def_194 (= .def_193 .def_191))) (let ((.def_195 (not .def_194))) (let ((.def_196 (not A9))) (let ((.def_197 (and A3 .def_196))) (let ((.def_198 (not .def_197))) (let ((.def_199 (= A22 .def_95))) (let ((.def_200 (not .def_199))) (let ((.def_201 (and .def_200 .def_198))) (let ((.def_202 (not .def_201))) (let ((.def_203 (and .def_202 .def_195))) (let ((.def_204 (and .def_203 .def_190))) (let ((.def_205 (and .def_204 .def_178))) (let ((.def_206 (and .def_205 .def_154))) (let ((.def_207 (not .def_206))) (let ((.def_208 (= .def_207 .def_105))) (let ((.def_209 (not .def_208))) .def_209)))))))))))))))))))))))))))))))))))))))))))))))))))))))))))))))))))))))))))))))))))))))))))))))))))))))))))))))))))))))))))))))))))))))))))))))))))))))))))))))))))))))))))))))))))))))))))))))))))))))))))))))))))
(check-sat)
